NAME: n40q15I.tsp, 40 nodes, semilla 888
COMMENT: Problema aleatorio de norma euclidea
DIMENSION: 40
CAPACITY: 15
EDGE_WEIGHT_TYPE: EUC_2D
NODE_COORD_SECTION
1   0.0000   0.0000
2 317.0000 439.0000
3 424.0000 411.0000
4 -174.0000 426.0000
5  38.0000 211.0000
6 117.0000 -53.0000
7 179.0000  85.0000
8 -145.0000 -67.0000
9 -314.0000 342.0000
10 385.0000 487.0000
11 -128.0000 -456.0000
12 -95.0000 133.0000
13 449.0000 -253.0000
14 389.0000 271.0000
15 -379.0000 468.0000
16  13.0000 -151.0000
17 223.0000 -422.0000
18 356.0000 -437.0000
19 309.0000  78.0000
20 103.0000 -391.0000
21 -20.0000 -109.0000
22  98.0000 485.0000
23 405.0000 -153.0000
24  15.0000 443.0000
25 288.0000 472.0000
26 -248.0000 -146.0000
27 184.0000  58.0000
28 479.0000 217.0000
29 312.0000 -160.0000
30  -4.0000 -431.0000
31 -348.0000 -214.0000
32 -121.0000 -311.0000
33 131.0000 342.0000
34 -258.0000 -362.0000
35  43.0000 265.0000
36 -119.0000 500.0000
37 -371.0000 343.0000
38 388.0000 296.0000
39  10.0000 442.0000
40 -307.0000 352.0000
DISPLAY_DATA_SECTION:
 1  250  250
 2  408  469
 3  462  455
 4  163  463
 5  269  355
 6  308  223
 7  339  292
 8  177  216
 9   93  421
10  442  493
11  186   22
12  202  316
13  474  123
14  444  385
15   60  484
16  256  174
17  361   39
18  428   31
19  404  289
20  301   54
21  240  195
22  299  492
23  452  173
24  257  471
25  394  486
26  126  177
27  342  279
28  489  358
29  406  170
30  248   34
31   76  143
32  189   94
33  315  421
34  121   69
35  271  382
36  190  500
37   64  421
38  444  398
39  255  471
40   96  426
DEMAND_SECTION
1 0
2 4
3 -5
4 0
5 -7
6 3
7 5
8 -10
9 -2
10 -7
11 2
12 0
13 3
14 8
15 -3
16 -7
17 -10
18 4
19 -1
20 2
21 5
22 0
23 8
24 -1
25 -2
26 3
27 -6
28 -9
29 8
30 6
31 -6
32 3
33 -2
34 -1
35 -5
36 6
37 5
38 -6
39 6
40 9
EOF